name="p31";
nr_vertices=9;
nr_edges=29;
neighborhoods=[{1,2,3,4,5,6,7,8},{0},{0,3,4,5,6,7,8},{0,2,4,5,6,7,8},{0,2,3,5,6,7,8},{0,2,3,4,6,7,8},{0,2,3,4,5,7,8},{0,2,3,4,5,6,8},{0,2,3,4,5,6,7}];
weights=[210,90,89,80,75,60,40,35,30];
